n = 9;

MS = 3;
/*archi = [[0 1 0 1 0 0 0 0 0]
         [1 0 1 0 1 1 0 0 0]
         [0 1 0 0 0 0 1 0 0]
         [1 0 0 0 1 0 0 0 0]
         [0 1 0 1 0 1 0 1 0]
         [0 1 0 0 1 0 1 0 1]
         [0 0 1 0 0 1 0 0 0]
         [0 0 0 0 1 0 0 0 1]
         [0 0 0 0 0 1 0 1 0]];*/
stable = 
[ [1 0 1]
  [0 1 0]
  [1 0 0]
  [0 1 0]
  [1 0 0]
  [0 0 1]
  [0 1 0]
  [0 1 1]
  [1 0 0]
];
